data/CVRPLIB/Vrp-Set-XML100/instances/XML100_2314_14.vrp
NAME : XML100_2314_14
COMMENT : Generated by Queiroga, Sadykov, Uchoa, and Vidal (2021)
TYPE : CVRP
DIMENSION : 101
EDGE_WEIGHT_TYPE : EUC_2D
CAPACITY : 12
NODE_COORD_SECTION
1    500  500 
2    740  198 
3    548  872 
4    154  535 
5    238  923 
6    230  468 
7    224  735 
8    88   534 
9    856  342 
10   863  222 
11   344  788 
12   933  265 
13   404  728 
14   819  221 
15   475  817 
16   86   583 
17   775  354 
18   201  546 
19   136  779 
20   116  478 
21   359  772 
22   753  889 
23   77   979 
24   529  613 
25   437  829 
26   9    30  
27   227  979 
28   846  233 
29   387  256 
30   454  630 
31   141  549 
32   383  826 
33   899  277 
34   840  220 
35   883  343 
36   805  510 
37   234  843 
38   978  505 
39   913  240 
40   894  230 
41   962  987 
42   720  331 
43   103  512 
44   288  820 
45   921  153 
46   728  88  
47   799  436 
48   794  966 
49   410  819 
50   822  277 
51   34   954 
52   19   1000
53   137  663 
54   428  837 
55   5    698 
56   518  663 
57   251  854 
58   13   701 
59   238  830 
60   835  542 
61   233  443 
62   117  512 
63   45   935 
64   170  443 
65   333  715 
66   112  503 
67   772  258 
68   320  855 
69   444  380 
70   586  908 
71   131  437 
72   85   366 
73   193  630 
74   463  821 
75   938  504 
76   34   589 
77   324  972 
78   60   890 
79   338  672 
80   343  317 
81   252  833 
82   781  95  
83   32   321 
84   943  187 
85   588  244 
86   503  234 
87   133  523 
88   770  375 
89   782  225 
90   53   586 
91   302  416 
92   18   105 
93   302  765 
94   723  40  
95   628  300 
96   330  817 
97   574  195 
98   236  473 
99   262  821 
100  817  278 
101  854  294 
DEMAND_SECTION
1    0   
2    1   
3    1   
4    1   
5    1   
6    1   
7    1   
8    1   
9    1   
10   1   
11   1   
12   1   
13   1   
14   1   
15   1   
16   1   
17   1   
18   1   
19   1   
20   1   
21   1   
22   1   
23   1   
24   1   
25   1   
26   1   
27   1   
28   1   
29   1   
30   1   
31   1   
32   1   
33   1   
34   1   
35   1   
36   1   
37   1   
38   1   
39   1   
40   1   
41   1   
42   1   
43   1   
44   1   
45   1   
46   1   
47   1   
48   1   
49   1   
50   1   
51   1   
52   1   
53   1   
54   1   
55   1   
56   1   
57   1   
58   1   
59   1   
60   1   
61   1   
62   1   
63   1   
64   1   
65   1   
66   1   
67   1   
68   1   
69   1   
70   1   
71   1   
72   1   
73   1   
74   1   
75   1   
76   1   
77   1   
78   1   
79   1   
80   1   
81   1   
82   1   
83   1   
84   1   
85   1   
86   1   
87   1   
88   1   
89   1   
90   1   
91   1   
92   1   
93   1   
94   1   
95   1   
96   1   
97   1   
98   1   
99   1   
100  1   
101  1   
DEPOT_SECTION
1
-1
EOF
