data/CVRPLIB/Vrp-Set-XML100/solutions/XML100_2314_14.sol
Route #1: 23 55 2 69 21 47 40 37 74 59 35 46
Route #2: 79 28 25 91 82 71 70 63 5 97 60 90
Route #3: 94 84 96 85 68
Route #4: 41 66 88 13 33 9 27 100 49 99 16 87
Route #5: 29 12 20 10 95 31 48 53 24 73 14
Route #6: 3 86 61 65 19 42 7 75 89 15 30 17
Route #7: 67 76 26 4 56 36 58 80 98 43 92 64
Route #8: 8 34 32 11 38 39 83 44 81 93 45 1
Route #9: 78 6 18 22 51 50 62 77 54 57 52 72
Cost 11433
